************************************************************************
file with basedata            : md366_.bas
initial value random generator: 1225635802
************************************************************************
projects                      :  1
jobs (incl. supersource/sink ):  22
horizon                       :  164
RESOURCES
  - renewable                 :  2   R
  - nonrenewable              :  2   N
  - doubly constrained        :  0   D
************************************************************************
PROJECT INFORMATION:
pronr.  #jobs rel.date duedate tardcost  MPM-Time
    1     20      0       26        1       26
************************************************************************
PRECEDENCE RELATIONS:
jobnr.    #modes  #successors   successors
   1        1          3           2   3   4
   2        3          3           5   8   9
   3        3          2           7  17
   4        3          3           6  12  14
   5        3          1          15
   6        3          3           7  17  18
   7        3          3          10  15  19
   8        3          3          10  11  14
   9        3          3          11  20  21
  10        3          2          13  20
  11        3          1          12
  12        3          1          18
  13        3          1          16
  14        3          3          15  16  17
  15        3          2          20  21
  16        3          1          21
  17        3          1          19
  18        3          1          19
  19        3          1          22
  20        3          1          22
  21        3          1          22
  22        1          0        
************************************************************************
REQUESTS/DURATIONS:
jobnr. mode duration  R 1  R 2  N 1  N 2
------------------------------------------------------------------------
  1      1     0       0    0    0    0
  2      1     2       7   10    8    1
         2     2       6   10    9    1
         3     8       5    8    3    1
  3      1     5       6    6    7   10
         2     5       7    9    7    9
         3     8       4    5    3    8
  4      1     3       6    9    9    2
         2     7       4    8    8    2
         3     7       6    8    8    1
  5      1     2       4    6    7    7
         2     2       4    8    6    7
         3     4       4    5    6    6
  6      1     5       3    4    2    8
         2     5       4    3    2    8
         3    10       3    2    2    8
  7      1     4       9    1    8    2
         2     6       8    1    4    2
         3     9       8    1    3    2
  8      1     4       8    8    4    5
         2     4       7   10    5    6
         3     7       4    5    2    5
  9      1     6       4    3    7    4
         2     6       5    2   10    4
         3    10       3    2    2    1
 10      1     1      10   10    7    4
         2     7      10    8    7    4
         3     7      10    9    7    1
 11      1     1       7    8    8    9
         2     5       7    7    8    7
         3     9       6    6    7    1
 12      1     1       8    6    6    7
         2     2       7    5    3    5
         3     9       6    5    3    2
 13      1     7       6    6    8    4
         2     8       6    6    7    4
         3    10       5    5    5    4
 14      1     2       2    9    7    6
         2     7       2    9    7    4
         3    10       2    6    7    3
 15      1     2      10    9    7    9
         2     4       6    9    7    7
         3     8       4    6    5    6
 16      1     3       5    3    4    4
         2     5       4    3    4    3
         3     8       3    3    4    2
 17      1     4       5    7    8    5
         2     7       5    5    8    4
         3    10       4    2    7    4
 18      1     4       7    2    6    4
         2     6       7    2    6    3
         3     7       6    1    6    3
 19      1     2       5    3    1    8
         2     4       4    2    1    6
         3     6       3    1    1    5
 20      1     4       8    9    6    4
         2     7       6    9    4    4
         3     8       2    8    4    3
 21      1     3       5    6    4    3
         2     7       4    5    4    3
         3     9       3    5    2    3
 22      1     0       0    0    0    0
************************************************************************
RESOURCEAVAILABILITIES:
  R 1  R 2  N 1  N 2
   20   24  108   88
************************************************************************
MAXIMAL LAGS:
from  to  type  delay
    1   22   ES      0
    1    2   ES      0
    2   22   ES      0
    1    3   ES      0
    3   22   ES      0
    1    4   ES      0
    4   22   ES      0
    1    5   ES      0
    5   22   ES      0
    1    6   ES      0
    6   22   ES      0
    1    7   ES      0
    7   22   ES      0
    1    8   ES      0
    8   22   ES      0
    1    9   ES      0
    9   22   ES      0
    1   10   ES      0
   10   22   ES      0
    1   11   ES      0
   11   22   ES      0
    1   12   ES      0
   12   22   ES      0
    1   13   ES      0
   13   22   ES      0
    1   14   ES      0
   14   22   ES      0
    1   15   ES      0
   15   22   ES      0
    1   16   ES      0
   16   22   ES      0
    1   17   ES      0
   17   22   ES      0
    1   18   ES      0
   18   22   ES      0
    1   19   ES      0
   19   22   ES      0
    1   20   ES      0
   20   22   ES      0
    1   21   ES      0
   21   22   ES      0
    1   22   ES      0
    2    5   SS      5
    2    5   SE      3
    2    5   ES    -11
    2    5   EE      1
    2    8   SS      6
    2    8   SE    -12
    2    8   ES     -2
    2    8   EE      2
    2    9   SS    -10
    2    9   SE     12
    2    9   ES    -10
    2    9   EE     -7
    3    7   SS    -10
    3    7   SE     10
    3    7   ES      4
    3    7   EE    -10
    3   17   SS      0
    3   17   SE      2
    3   17   ES     10
    3   17   EE      7
    4    6   SS     -6
    4    6   SE     -7
    4    6   ES     -5
    4    6   EE     -1
    4   12   SS     -6
    4   12   SE      6
    4   12   ES     -5
    4   12   EE     12
    4   14   SS     10
    4   14   SE     -5
    4   14   ES    -12
    4   14   EE      8
    5   15   SS     -1
    5   15   SE     -4
    5   15   ES      4
    5   15   EE     -3
    6    7   SS     11
    6    7   SE      6
    6    7   ES     10
    6    7   EE     -2
    6   17   SS    -10
    6   17   SE      1
    6   17   ES     -2
    6   17   EE      3
    6   18   SS    -11
    6   18   SE      2
    6   18   ES      6
    6   18   EE     -3
    7   10   SS     -6
    7   10   SE     -8
    7   10   ES     -9
    7   10   EE     10
    7   15   SS      4
    7   15   SE     -5
    7   15   ES    -11
    7   15   EE     -8
    7   19   SS     -4
    7   19   SE     -7
   19    7   SE      0
    7   19   ES      0
    7   19   EE      9
    8   10   SS     -4
    8   10   SE      1
    8   10   ES     11
    8   10   EE      4
    8   11   SS     -2
    8   11   SE      8
    8   11   ES      9
    8   11   EE     -2
    8   14   SS     11
    8   14   SE     -9
    8   14   ES      6
    8   14   EE    -12
    9   11   SS     -8
    9   11   SE     11
    9   11   ES    -11
    9   11   EE     -3
    9   20   SS    -10
    9   20   SE     12
    9   20   ES      8
    9   20   EE    -10
    9   21   SS     -2
    9   21   SE     10
    9   21   ES     -3
    9   21   EE      5
   10   13   SS      4
   10   13   SE    -11
   10   13   ES     12
   10   13   EE     -2
   10   20   SS     -9
   10   20   SE    -11
   10   20   ES      7
   10   20   EE     -5
   11   12   SS     -6
   11   12   SE     -3
   11   12   ES      0
   11   12   EE     12
   12   18   SS     -1
   12   18   SE     11
   12   18   ES     -5
   12   18   EE     -5
   13   16   SS      1
   13   16   SE     -6
   13   16   ES     12
   13   16   EE     -5
   14   15   SS    -12
   14   15   SE     -2
   14   15   ES      3
   14   15   EE     10
   14   16   SS     12
   14   16   SE     -1
   14   16   ES     10
   14   16   EE     -3
   14   17   SS     -6
   14   17   SE      2
   14   17   ES     10
   14   17   EE    -11
   15   20   SS    -12
   15   20   SE      6
   15   20   ES      5
   15   20   EE     -3
   15   21   SS     -9
   15   21   SE      0
   15   21   ES     12
   15   21   EE     -4
   16   21   SS     -5
   16   21   SE      2
   16   21   ES      2
   16   21   EE    -11
   17   19   SS      8
   17   19   SE      8
   17   19   ES     -8
   17   19   EE     -9
   18   19   SS      2
   18   19   SE    -12
   18   19   ES     11
   18   19   EE     -4
************************************************************************
